groups = 163;
numShifts = 3;
demand = [| 72, 79, 80, 78, 82, 76, 74,
          | 39, 40, 44, 43, 43, 38, 40,
          | 5, 6, 5, 6, 6, 6, 5 |];
minShift = [2, 2, 2];
maxShift = [6, 6, 5];
minOff = 1;
maxOff = 4;
minOn = 3;
maxOn = 6;
forbidden = [{}, {1}, {1,2}];
forbidden3 = [| 2, 0, 1,
              | 3, 0, 2,
              | 3, 0, 1,
              | 3, 0, 3 |];
